NAME : cgl_47.5046.tour
COMMENT : Length = 5046
COMMENT : Found by LKH-3 [Keld Helsgaun] Thu Jun 26 21:26:48 2025
TYPE : TOUR
DIMENSION : 48
TOUR_SECTION
41
42
44
43
45
46
47
48
31
32
29
30
27
28
26
14
21
11
17
16
19
23
20
22
25
13
15
18
12
24
4
1
6
7
5
2
3
8
9
10
33
34
37
40
36
38
39
35
-1
EOF
